0 637 331
1 2 455
2 118 384
3 408 31
4 0 192
5 771 750
6 368 180
7 191 26
8 54 516
9 51 77
10 579 132
11 36 572
12 20 14
13 734 644
14 174 48
15 92 4
16 62 249
17 279 3
18 0 12
19 185 439
20 367 38
21 970 69
22 16 8
23 617 11
24 257 737
25 297 629
26 82 355
27 616 14
28 0 487
29 174 53
30 790 38
31 327 268
32 620 27
33 91 485
34 703 38
35 197 217
36 5 858
37 205 545
38 237 19
39 37 47
40 159 190
41 426 168
42 83 223
43 21 23
44 16 124
45 232 22
46 23 131
47 125 186
48 627 277
49 98 17